************************************************************************
file with basedata            : mm13_.bas
initial value random generator: 1257126291
************************************************************************
projects                      :  1
jobs (incl. supersource/sink ):  12
horizon                       :  76
RESOURCES
  - renewable                 :  2   R
  - nonrenewable              :  2   N
  - doubly constrained        :  0   D
************************************************************************
PROJECT INFORMATION:
pronr.  #jobs rel.date duedate tardcost  MPM-Time
    1     10      0       15        1       15
************************************************************************
PRECEDENCE RELATIONS:
jobnr.    #modes  #successors   successors
   0        1          3           1   2   3
   1        3          3           4   5   6
   2        3          1           5
   3        3          2           4   5
   4        3          2           8   9
   5        3          1           7
   6        3          1           7
   7        3          2           8  10
   8        3          1          11
   9        3          1          11
  10        3          1          11
  11        1          0        
************************************************************************
REQUESTS/DURATIONS:
jobnr. mode duration  R 1  R 2  R 3  R 4  E(W 1)  E(W 2)  E(W 3)
------------------------------------------------------------------------
  0      1     0       0    0    0    0     0       0       0
  1      1     2       0    6    2    8    12       4      16
  2      1     1       4    0    6    6     4       6       6
  3      1     3       0    3    5    7     9      15      21
  4      1     2       8    0    4    5    16       8      10
  5      1     7       0    9    7    3    63      49      21
  6      1     3       5    0    8    6    15      24      18
  7      1     1       7    0    6    5     7       6       5
  8      1     3       6    0    7    5    18      21      15
  9      1     1       8    0    4    8     8       4       8
 10      1     4       0    5   10    8    20      40      32
 11      1     0       0    0    0    0     0       0       0
************************************************************************
RESOURCEAVAILABILITIES:
  R 1  R 2  R 3
   24   45   46
************************************************************************
RESOURCE LIMITS:
jobnr.  l(R 1)  u(R 1)  l(R 2)  u(R 2)  l(R 3)  u(R 3)
------------------------------------------------------------------------
  0        0       0       0       0       0       0
  1        3       6       1       2       4       8
  2        2       4       3       6       3       6
  3        2       3       3       5       4       7
  4        4       8       2       4       3       5
  5        5       9       4       7       2       3
  6        3       5       4       8       3       6
  7        4       7       3       6       3       5
  8        3       6       4       7       3       5
  9        4       8       2       4       4       8
 10        3       5       5      10       4       8
 11        0       0       0       0       0       0
************************************************************************
SCENARIOS:
------------------------------------------------------------------------
RESOURCE k = 1
s = 1: (0, 12, 7, 10, 20, 78, 13, 7, 12, 8, 16, 0)
s = 2: (0, 15, 5, 8, 15, 61, 18, 12, 15, 7, 13, 0)
s = 3: (0, 18, 4, 11, 19, 50, 16, 7, 19, 11, 12, 0)
s = 4: (0, 10, 7, 7, 16, 56, 16, 9, 24, 11, 12, 0)
s = 5: (0, 14, 5, 6, 10, 58, 18, 7, 20, 8, 25, 0)
s = 6: (0, 15, 5, 8, 15, 61, 22, 5, 18, 6, 19, 0)
s = 7: (0, 14, 5, 17, 10, 51, 16, 7, 21, 6, 11, 0)
s = 8: (0, 11, 3, 8, 28, 59, 15, 6, 23, 12, 29, 0)
s = 9: (0, 10, 4, 12, 20, 54, 9, 5, 22, 15, 29, 0)
s = 10: (0, 12, 6, 12, 12, 60, 14, 8, 10, 6, 23, 0)
s = 11: (0, 12, 5, 11, 20, 73, 21, 7, 20, 7, 16, 0)
s = 12: (0, 9, 5, 8, 15, 45, 9, 6, 14, 5, 21, 0)
s = 13: (0, 11, 5, 6, 10, 59, 20, 5, 24, 12, 30, 0)
s = 14: (0, 14, 5, 11, 12, 69, 19, 6, 19, 6, 14, 0)
s = 15: (0, 18, 4, 13, 17, 64, 17, 8, 16, 9, 19, 0)
s = 16: (0, 16, 5, 16, 11, 48, 18, 4, 17, 7, 22, 0)
s = 17: (0, 21, 5, 12, 20, 46, 28, 5, 25, 8, 28, 0)
s = 18: (0, 9, 4, 8, 29, 44, 21, 6, 17, 8, 25, 0)
s = 19: (0, 14, 4, 13, 17, 53, 19, 7, 16, 13, 27, 0)
s = 20: (0, 15, 3, 12, 22, 69, 13, 8, 17, 6, 25, 0)
s = 21: (0, 22, 4, 8, 14, 74, 12, 5, 15, 7, 25, 0)
s = 22: (0, 15, 4, 7, 16, 67, 18, 9, 14, 10, 20, 0)
s = 23: (0, 14, 6, 12, 13, 74, 10, 5, 16, 6, 17, 0)
s = 24: (0, 8, 3, 11, 16, 82, 15, 9, 11, 7, 17, 0)
s = 25: (0, 9, 4, 12, 24, 43, 14, 8, 31, 6, 25, 0)
s = 26: (0, 9, 3, 7, 20, 78, 18, 8, 15, 7, 19, 0)
s = 27: (0, 12, 3, 7, 11, 45, 10, 6, 11, 9, 14, 0)
s = 28: (0, 15, 6, 7, 14, 82, 16, 6, 23, 6, 22, 0)
s = 29: (0, 11, 5, 8, 15, 62, 13, 5, 22, 11, 19, 0)
s = 30: (0, 10, 4, 7, 19, 47, 10, 9, 12, 10, 13, 0)
s = 31: (0, 17, 3, 8, 20, 51, 20, 6, 13, 7, 12, 0)
s = 32: (0, 10, 5, 10, 14, 47, 18, 6, 21, 6, 15, 0)
s = 33: (0, 15, 5, 9, 19, 49, 20, 6, 15, 9, 15, 0)
s = 34: (0, 16, 4, 14, 13, 62, 17, 10, 22, 10, 27, 0)
s = 35: (0, 10, 5, 11, 18, 59, 13, 10, 39, 6, 25, 0)
s = 36: (0, 11, 4, 6, 13, 41, 18, 9, 20, 7, 28, 0)
s = 37: (0, 7, 3, 15, 16, 75, 18, 7, 28, 13, 26, 0)
s = 38: (0, 17, 4, 10, 11, 70, 19, 5, 11, 10, 16, 0)
s = 39: (0, 11, 3, 12, 15, 57, 16, 9, 21, 7, 21, 0)
s = 40: (0, 13, 3, 8, 16, 111, 13, 7, 13, 7, 12, 0)
s = 41: (0, 9, 4, 8, 18, 69, 16, 9, 22, 10, 20, 0)
s = 42: (0, 15, 5, 9, 10, 86, 19, 10, 11, 9, 27, 0)
s = 43: (0, 15, 5, 6, 13, 40, 11, 8, 15, 7, 13, 0)
s = 44: (0, 12, 3, 14, 17, 50, 12, 9, 14, 5, 28, 0)
s = 45: (0, 8, 6, 8, 16, 64, 15, 5, 16, 8, 18, 0)
s = 46: (0, 14, 5, 10, 11, 72, 15, 6, 17, 10, 27, 0)
s = 47: (0, 15, 4, 8, 13, 57, 13, 7, 12, 8, 17, 0)
s = 48: (0, 17, 3, 13, 23, 50, 17, 7, 22, 6, 20, 0)
s = 49: (0, 13, 4, 10, 11, 53, 15, 6, 16, 8, 32, 0)
s = 50: (0, 9, 5, 13, 12, 41, 18, 8, 16, 9, 13, 0)
s = 51: (0, 9, 3, 12, 21, 50, 20, 8, 26, 9, 30, 0)
s = 52: (0, 13, 4, 8, 11, 51, 12, 13, 19, 6, 20, 0)
s = 53: (0, 12, 5, 8, 15, 41, 14, 7, 17, 7, 12, 0)
s = 54: (0, 12, 7, 11, 11, 37, 10, 5, 14, 11, 13, 0)
s = 55: (0, 10, 3, 9, 17, 87, 13, 7, 21, 9, 18, 0)
s = 56: (0, 16, 5, 13, 14, 59, 11, 10, 18, 5, 23, 0)
s = 57: (0, 10, 5, 12, 21, 61, 16, 4, 18, 10, 18, 0)
s = 58: (0, 15, 6, 9, 10, 53, 19, 8, 21, 9, 22, 0)
s = 59: (0, 9, 7, 11, 15, 52, 12, 7, 23, 7, 13, 0)
s = 60: (0, 10, 7, 18, 13, 47, 12, 7, 17, 13, 23, 0)
s = 61: (0, 14, 3, 9, 15, 65, 20, 10, 14, 7, 28, 0)
s = 62: (0, 16, 4, 14, 20, 67, 12, 9, 20, 5, 30, 0)
s = 63: (0, 9, 6, 9, 15, 68, 14, 7, 14, 5, 13, 0)
s = 64: (0, 19, 4, 17, 14, 94, 20, 6, 17, 8, 19, 0)
s = 65: (0, 13, 4, 12, 13, 55, 18, 8, 18, 6, 17, 0)
s = 66: (0, 11, 3, 8, 11, 45, 14, 9, 13, 7, 22, 0)
s = 67: (0, 9, 4, 9, 14, 47, 14, 7, 10, 13, 19, 0)
s = 68: (0, 9, 3, 8, 16, 100, 22, 10, 15, 12, 14, 0)
s = 69: (0, 19, 4, 8, 14, 64, 17, 9, 20, 5, 26, 0)
s = 70: (0, 20, 7, 12, 18, 74, 15, 5, 20, 5, 12, 0)
s = 71: (0, 10, 7, 8, 19, 44, 14, 8, 14, 6, 29, 0)
s = 72: (0, 7, 6, 7, 20, 51, 14, 10, 17, 11, 34, 0)
s = 73: (0, 9, 4, 11, 13, 89, 13, 9, 15, 10, 14, 0)
s = 74: (0, 11, 3, 13, 13, 73, 19, 7, 12, 9, 34, 0)
s = 75: (0, 19, 4, 8, 13, 88, 13, 8, 23, 10, 15, 0)
s = 76: (0, 8, 3, 6, 14, 78, 24, 5, 23, 8, 35, 0)
s = 77: (0, 9, 3, 8, 13, 39, 16, 6, 15, 7, 20, 0)
s = 78: (0, 12, 4, 12, 17, 51, 24, 13, 20, 9, 28, 0)
s = 79: (0, 15, 5, 12, 17, 58, 8, 8, 16, 11, 14, 0)
s = 80: (0, 12, 3, 6, 19, 75, 16, 11, 14, 6, 17, 0)
s = 81: (0, 11, 3, 8, 13, 61, 15, 8, 18, 8, 19, 0)
s = 82: (0, 12, 4, 8, 17, 54, 18, 7, 20, 8, 27, 0)
s = 83: (0, 12, 5, 7, 23, 46, 17, 6, 25, 10, 20, 0)
s = 84: (0, 8, 4, 11, 12, 61, 13, 9, 25, 8, 20, 0)
s = 85: (0, 19, 3, 11, 23, 36, 12, 8, 23, 9, 11, 0)
s = 86: (0, 11, 3, 7, 12, 64, 19, 8, 21, 6, 14, 0)
s = 87: (0, 17, 4, 15, 12, 68, 22, 11, 18, 6, 13, 0)
s = 88: (0, 14, 3, 7, 13, 77, 9, 7, 26, 5, 21, 0)
s = 89: (0, 10, 5, 15, 18, 49, 14, 7, 12, 11, 16, 0)
s = 90: (0, 9, 4, 11, 23, 46, 11, 8, 16, 9, 27, 0)
s = 91: (0, 12, 5, 9, 20, 78, 19, 7, 24, 8, 29, 0)
s = 92: (0, 8, 6, 11, 13, 53, 14, 6, 17, 7, 13, 0)
s = 93: (0, 11, 6, 11, 19, 82, 17, 7, 16, 9, 14, 0)
s = 94: (0, 16, 4, 18, 14, 59, 10, 6, 14, 7, 16, 0)
s = 95: (0, 16, 4, 9, 12, 75, 16, 4, 21, 10, 31, 0)
s = 96: (0, 15, 3, 6, 15, 36, 16, 7, 27, 9, 26, 0)
s = 97: (0, 8, 4, 13, 20, 32, 15, 7, 18, 7, 21, 0)
s = 98: (0, 18, 3, 15, 11, 76, 12, 5, 17, 11, 24, 0)
s = 99: (0, 11, 4, 6, 16, 88, 10, 5, 17, 10, 14, 0)
s = 100: (0, 17, 4, 9, 13, 37, 20, 7, 12, 9, 15, 0)
s = 101: (0, 13, 5, 10, 14, 81, 13, 6, 17, 9, 18, 0)
s = 102: (0, 15, 4, 8, 19, 48, 24, 5, 18, 7, 24, 0)
s = 103: (0, 12, 4, 10, 19, 38, 18, 6, 10, 9, 17, 0)
s = 104: (0, 16, 4, 10, 12, 46, 12, 6, 13, 9, 23, 0)
s = 105: (0, 12, 4, 8, 18, 77, 16, 9, 17, 8, 21, 0)
s = 106: (0, 12, 5, 8, 23, 82, 16, 9, 15, 6, 12, 0)
s = 107: (0, 16, 4, 10, 16, 48, 22, 8, 24, 9, 15, 0)
s = 108: (0, 10, 4, 10, 20, 64, 14, 5, 14, 7, 32, 0)
s = 109: (0, 11, 3, 10, 15, 74, 14, 9, 20, 7, 15, 0)
s = 110: (0, 10, 4, 16, 27, 43, 20, 7, 23, 6, 18, 0)
s = 111: (0, 14, 3, 5, 16, 68, 14, 8, 19, 9, 17, 0)
s = 112: (0, 11, 3, 8, 20, 110, 18, 4, 25, 11, 14, 0)
s = 113: (0, 10, 6, 9, 19, 55, 18, 10, 23, 9, 16, 0)
s = 114: (0, 18, 4, 6, 17, 66, 19, 6, 18, 6, 11, 0)
s = 115: (0, 14, 3, 10, 21, 56, 12, 10, 12, 5, 12, 0)
s = 116: (0, 14, 6, 11, 23, 72, 15, 7, 11, 7, 19, 0)
s = 117: (0, 14, 4, 9, 21, 69, 18, 6, 13, 10, 15, 0)
s = 118: (0, 9, 3, 7, 13, 82, 21, 5, 28, 7, 22, 0)
s = 119: (0, 13, 7, 11, 17, 69, 24, 10, 12, 7, 21, 0)
s = 120: (0, 9, 4, 13, 15, 90, 24, 7, 12, 8, 21, 0)
s = 121: (0, 8, 6, 11, 23, 79, 16, 5, 24, 7, 21, 0)
s = 122: (0, 17, 5, 14, 11, 48, 14, 8, 24, 10, 13, 0)
s = 123: (0, 13, 6, 8, 20, 40, 24, 9, 17, 12, 33, 0)
s = 124: (0, 12, 6, 6, 19, 76, 16, 9, 12, 12, 20, 0)
s = 125: (0, 14, 4, 6, 17, 43, 13, 6, 18, 9, 18, 0)
s = 126: (0, 10, 3, 11, 11, 38, 22, 7, 16, 7, 17, 0)
s = 127: (0, 12, 4, 9, 17, 74, 10, 9, 16, 6, 16, 0)
s = 128: (0, 14, 5, 7, 15, 41, 12, 7, 21, 11, 16, 0)
s = 129: (0, 18, 5, 12, 24, 67, 19, 6, 12, 8, 26, 0)
s = 130: (0, 13, 5, 10, 16, 97, 12, 9, 11, 7, 14, 0)
s = 131: (0, 11, 4, 10, 17, 67, 17, 7, 30, 10, 20, 0)
s = 132: (0, 8, 3, 13, 20, 58, 12, 6, 22, 8, 19, 0)
s = 133: (0, 17, 4, 13, 24, 72, 19, 9, 16, 10, 13, 0)
s = 134: (0, 17, 7, 12, 12, 55, 15, 10, 16, 5, 29, 0)
s = 135: (0, 8, 3, 10, 14, 81, 14, 9, 23, 15, 20, 0)
s = 136: (0, 11, 7, 14, 20, 52, 12, 11, 11, 11, 22, 0)
s = 137: (0, 15, 3, 8, 17, 57, 17, 12, 12, 7, 18, 0)
s = 138: (0, 11, 6, 16, 10, 59, 23, 10, 21, 7, 24, 0)
s = 139: (0, 16, 3, 10, 17, 72, 15, 6, 29, 10, 18, 0)
s = 140: (0, 11, 5, 10, 19, 76, 24, 6, 12, 14, 16, 0)
s = 141: (0, 19, 4, 6, 12, 50, 11, 6, 16, 5, 21, 0)
s = 142: (0, 10, 5, 9, 14, 65, 19, 5, 24, 9, 20, 0)
s = 143: (0, 16, 4, 9, 18, 61, 22, 9, 27, 10, 18, 0)
s = 144: (0, 11, 3, 7, 14, 79, 11, 12, 14, 10, 19, 0)
s = 145: (0, 10, 5, 6, 16, 62, 14, 7, 25, 7, 15, 0)
s = 146: (0, 17, 5, 16, 12, 54, 9, 8, 19, 6, 19, 0)
s = 147: (0, 13, 4, 7, 22, 42, 24, 9, 10, 8, 20, 0)
s = 148: (0, 12, 5, 16, 12, 34, 12, 10, 12, 8, 12, 0)
s = 149: (0, 13, 3, 14, 14, 43, 9, 6, 11, 10, 25, 0)
s = 150: (0, 16, 6, 13, 10, 64, 17, 8, 28, 7, 19, 0)
s = 151: (0, 14, 5, 11, 12, 92, 16, 5, 12, 7, 20, 0)
s = 152: (0, 10, 3, 10, 30, 83, 20, 10, 20, 7, 14, 0)
s = 153: (0, 14, 5, 6, 25, 55, 10, 6, 25, 5, 16, 0)
s = 154: (0, 21, 5, 11, 11, 74, 24, 5, 24, 7, 15, 0)
s = 155: (0, 13, 4, 14, 19, 46, 11, 9, 18, 14, 35, 0)
s = 156: (0, 8, 3, 7, 20, 70, 10, 8, 14, 7, 19, 0)
s = 157: (0, 13, 5, 5, 17, 61, 12, 8, 12, 7, 11, 0)
s = 158: (0, 9, 4, 11, 17, 65, 14, 9, 19, 8, 14, 0)
s = 159: (0, 8, 3, 6, 13, 77, 15, 6, 13, 5, 26, 0)
s = 160: (0, 15, 3, 7, 14, 47, 15, 6, 18, 8, 15, 0)
s = 161: (0, 8, 4, 7, 10, 51, 9, 6, 35, 11, 32, 0)
s = 162: (0, 16, 5, 7, 21, 73, 10, 6, 12, 7, 13, 0)
s = 163: (0, 14, 4, 10, 16, 40, 12, 6, 14, 5, 17, 0)
s = 164: (0, 9, 6, 8, 17, 78, 17, 5, 13, 5, 13, 0)
s = 165: (0, 17, 4, 10, 14, 79, 12, 11, 16, 8, 17, 0)
s = 166: (0, 15, 4, 14, 14, 80, 14, 6, 24, 12, 17, 0)
s = 167: (0, 10, 4, 10, 14, 58, 19, 7, 16, 8, 13, 0)
s = 168: (0, 16, 3, 7, 15, 54, 12, 6, 18, 11, 12, 0)
s = 169: (0, 11, 5, 12, 12, 60, 19, 6, 17, 6, 20, 0)
s = 170: (0, 13, 6, 11, 17, 112, 19, 8, 32, 7, 19, 0)
s = 171: (0, 9, 6, 9, 23, 75, 14, 6, 22, 6, 21, 0)
s = 172: (0, 14, 4, 6, 14, 94, 23, 10, 13, 9, 28, 0)
s = 173: (0, 14, 7, 9, 16, 59, 14, 6, 17, 10, 15, 0)
s = 174: (0, 14, 6, 9, 18, 39, 11, 7, 21, 8, 17, 0)
s = 175: (0, 11, 3, 7, 12, 64, 12, 6, 27, 5, 29, 0)
s = 176: (0, 12, 4, 7, 17, 83, 17, 8, 19, 9, 19, 0)
s = 177: (0, 9, 6, 15, 14, 92, 18, 7, 14, 6, 22, 0)
s = 178: (0, 8, 5, 10, 26, 65, 23, 9, 24, 5, 23, 0)
s = 179: (0, 8, 5, 11, 17, 58, 20, 9, 16, 10, 18, 0)
s = 180: (0, 16, 6, 9, 16, 68, 12, 6, 18, 11, 24, 0)
s = 181: (0, 15, 5, 7, 14, 45, 24, 6, 20, 11, 23, 0)
s = 182: (0, 18, 3, 12, 24, 104, 15, 5, 25, 8, 24, 0)
s = 183: (0, 13, 5, 6, 26, 70, 20, 9, 22, 8, 33, 0)
s = 184: (0, 15, 3, 7, 17, 92, 15, 5, 12, 7, 15, 0)
s = 185: (0, 9, 4, 10, 14, 35, 13, 8, 15, 7, 17, 0)
s = 186: (0, 10, 4, 17, 22, 48, 9, 9, 23, 6, 20, 0)
s = 187: (0, 15, 3, 12, 14, 52, 13, 5, 28, 11, 13, 0)
s = 188: (0, 19, 5, 13, 24, 55, 24, 9, 33, 9, 25, 0)
s = 189: (0, 12, 3, 8, 22, 96, 17, 8, 20, 10, 13, 0)
s = 190: (0, 12, 3, 6, 19, 47, 16, 8, 13, 11, 18, 0)
s = 191: (0, 11, 4, 9, 18, 49, 13, 7, 13, 9, 14, 0)
s = 192: (0, 20, 5, 10, 19, 91, 15, 7, 22, 10, 18, 0)
s = 193: (0, 18, 4, 9, 15, 90, 12, 5, 20, 9, 17, 0)
s = 194: (0, 15, 5, 11, 26, 65, 12, 7, 15, 10, 22, 0)
s = 195: (0, 11, 3, 8, 11, 58, 25, 5, 16, 7, 30, 0)
s = 196: (0, 14, 4, 7, 16, 35, 14, 7, 21, 8, 27, 0)
s = 197: (0, 16, 4, 7, 30, 73, 13, 7, 13, 11, 27, 0)
s = 198: (0, 11, 6, 9, 20, 47, 12, 11, 25, 10, 24, 0)
s = 199: (0, 13, 3, 10, 11, 49, 12, 7, 25, 9, 15, 0)
s = 200: (0, 14, 6, 7, 15, 57, 14, 11, 15, 8, 36, 0)
------------------------------------------------------------------------
RESOURCE k = 2
s = 1: (0, 4, 10, 16, 10, 60, 20, 6, 14, 4, 31, 0)
s = 2: (0, 5, 7, 13, 8, 47, 29, 10, 17, 4, 25, 0)
s = 3: (0, 6, 5, 17, 10, 39, 26, 6, 22, 6, 23, 0)
s = 4: (0, 4, 10, 12, 8, 44, 25, 8, 28, 6, 24, 0)
s = 5: (0, 5, 7, 9, 5, 45, 28, 6, 24, 4, 50, 0)
s = 6: (0, 5, 7, 13, 8, 47, 35, 5, 21, 3, 38, 0)
s = 7: (0, 5, 7, 28, 5, 40, 25, 6, 25, 3, 22, 0)
s = 8: (0, 4, 5, 13, 14, 46, 24, 5, 27, 6, 58, 0)
s = 9: (0, 4, 6, 19, 10, 42, 15, 5, 26, 8, 57, 0)
s = 10: (0, 4, 9, 20, 6, 47, 22, 7, 12, 3, 46, 0)
s = 11: (0, 4, 7, 18, 10, 57, 34, 6, 24, 4, 31, 0)
s = 12: (0, 3, 7, 13, 8, 35, 14, 6, 17, 3, 41, 0)
s = 13: (0, 4, 7, 10, 5, 46, 32, 4, 28, 6, 59, 0)
s = 14: (0, 5, 7, 18, 6, 54, 29, 5, 22, 3, 27, 0)
s = 15: (0, 6, 6, 22, 9, 50, 27, 7, 19, 5, 38, 0)
s = 16: (0, 6, 7, 27, 6, 37, 29, 4, 20, 4, 44, 0)
s = 17: (0, 7, 8, 19, 10, 36, 45, 4, 29, 4, 55, 0)
s = 18: (0, 3, 6, 12, 15, 34, 33, 5, 20, 4, 50, 0)
s = 19: (0, 5, 6, 22, 9, 41, 30, 6, 18, 7, 53, 0)
s = 20: (0, 5, 5, 19, 11, 54, 21, 7, 20, 3, 50, 0)
s = 21: (0, 8, 5, 13, 7, 58, 20, 5, 17, 4, 49, 0)
s = 22: (0, 5, 6, 11, 8, 52, 29, 8, 17, 5, 40, 0)
s = 23: (0, 5, 9, 19, 7, 57, 16, 4, 18, 3, 34, 0)
s = 24: (0, 3, 5, 18, 8, 64, 24, 8, 12, 4, 34, 0)
s = 25: (0, 3, 6, 20, 12, 33, 22, 7, 36, 3, 50, 0)
s = 26: (0, 3, 4, 11, 10, 61, 28, 7, 17, 4, 37, 0)
s = 27: (0, 4, 5, 11, 6, 35, 16, 5, 13, 5, 27, 0)
s = 28: (0, 5, 9, 11, 7, 64, 25, 6, 26, 3, 43, 0)
s = 29: (0, 4, 7, 14, 8, 49, 20, 5, 26, 6, 37, 0)
s = 30: (0, 4, 6, 12, 10, 37, 16, 8, 14, 5, 25, 0)
s = 31: (0, 6, 5, 13, 10, 40, 31, 5, 15, 4, 23, 0)
s = 32: (0, 4, 7, 16, 7, 37, 28, 5, 25, 3, 29, 0)
s = 33: (0, 5, 7, 15, 10, 39, 31, 5, 18, 5, 29, 0)
s = 34: (0, 6, 5, 23, 7, 49, 26, 9, 26, 5, 54, 0)
s = 35: (0, 4, 8, 18, 9, 46, 21, 9, 45, 3, 49, 0)
s = 36: (0, 4, 6, 9, 7, 32, 29, 8, 23, 4, 55, 0)
s = 37: (0, 3, 4, 25, 8, 58, 29, 6, 32, 7, 52, 0)
s = 38: (0, 6, 5, 17, 6, 54, 30, 4, 13, 5, 31, 0)
s = 39: (0, 4, 5, 19, 8, 45, 26, 8, 25, 4, 42, 0)
s = 40: (0, 5, 5, 13, 8, 86, 20, 6, 16, 4, 24, 0)
s = 41: (0, 3, 6, 12, 9, 54, 25, 8, 26, 5, 40, 0)
s = 42: (0, 5, 7, 14, 5, 67, 30, 9, 13, 5, 54, 0)
s = 43: (0, 5, 7, 10, 7, 32, 18, 7, 17, 4, 25, 0)
s = 44: (0, 4, 4, 24, 9, 39, 20, 8, 17, 3, 55, 0)
s = 45: (0, 3, 9, 13, 8, 50, 23, 5, 18, 4, 36, 0)
s = 46: (0, 5, 7, 17, 6, 56, 23, 5, 20, 5, 54, 0)
s = 47: (0, 5, 6, 13, 7, 44, 20, 6, 14, 4, 34, 0)
s = 48: (0, 6, 5, 21, 12, 39, 27, 6, 25, 3, 40, 0)
s = 49: (0, 5, 6, 16, 6, 41, 24, 5, 19, 4, 63, 0)
s = 50: (0, 3, 8, 22, 6, 32, 29, 7, 19, 5, 26, 0)
s = 51: (0, 3, 4, 19, 11, 39, 31, 7, 31, 5, 59, 0)
s = 52: (0, 5, 5, 12, 6, 40, 18, 11, 22, 3, 40, 0)
s = 53: (0, 4, 7, 13, 8, 32, 22, 6, 19, 4, 24, 0)
s = 54: (0, 4, 10, 18, 6, 29, 16, 4, 17, 6, 25, 0)
s = 55: (0, 4, 4, 15, 9, 68, 20, 6, 25, 5, 36, 0)
s = 56: (0, 6, 7, 22, 7, 46, 17, 9, 21, 3, 45, 0)
s = 57: (0, 4, 7, 20, 11, 48, 25, 4, 21, 5, 36, 0)
s = 58: (0, 5, 9, 15, 5, 41, 29, 7, 25, 5, 43, 0)
s = 59: (0, 3, 10, 19, 8, 40, 19, 6, 27, 4, 25, 0)
s = 60: (0, 4, 10, 30, 7, 37, 18, 6, 20, 7, 45, 0)
s = 61: (0, 5, 5, 14, 8, 50, 31, 8, 16, 4, 56, 0)
s = 62: (0, 6, 6, 23, 10, 52, 18, 8, 23, 3, 60, 0)
s = 63: (0, 3, 9, 15, 8, 53, 23, 6, 16, 3, 26, 0)
s = 64: (0, 7, 6, 28, 7, 73, 31, 5, 20, 4, 37, 0)
s = 65: (0, 5, 5, 19, 7, 43, 29, 7, 21, 3, 34, 0)
s = 66: (0, 4, 4, 13, 6, 35, 21, 8, 15, 4, 44, 0)
s = 67: (0, 3, 5, 15, 7, 37, 22, 6, 12, 7, 38, 0)
s = 68: (0, 3, 5, 13, 8, 78, 35, 9, 18, 6, 28, 0)
s = 69: (0, 7, 6, 13, 7, 50, 27, 8, 23, 3, 52, 0)
s = 70: (0, 7, 10, 19, 9, 58, 24, 5, 23, 3, 23, 0)
s = 71: (0, 4, 10, 13, 10, 34, 22, 7, 16, 3, 57, 0)
s = 72: (0, 3, 9, 11, 10, 40, 22, 8, 20, 6, 68, 0)
s = 73: (0, 3, 6, 18, 7, 69, 20, 8, 17, 5, 28, 0)
s = 74: (0, 4, 5, 22, 7, 57, 30, 6, 13, 5, 67, 0)
s = 75: (0, 7, 6, 14, 7, 68, 21, 7, 27, 5, 30, 0)
s = 76: (0, 3, 5, 10, 7, 61, 39, 5, 27, 4, 69, 0)
s = 77: (0, 3, 4, 12, 7, 31, 25, 6, 17, 4, 40, 0)
s = 78: (0, 4, 5, 19, 9, 40, 38, 11, 24, 5, 55, 0)
s = 79: (0, 5, 7, 20, 9, 45, 13, 7, 19, 6, 28, 0)
s = 80: (0, 4, 4, 10, 10, 58, 25, 9, 16, 3, 34, 0)
s = 81: (0, 4, 5, 13, 7, 47, 23, 7, 21, 4, 37, 0)
s = 82: (0, 4, 5, 13, 9, 42, 29, 6, 24, 4, 54, 0)
s = 83: (0, 4, 7, 12, 12, 36, 27, 5, 29, 5, 39, 0)
s = 84: (0, 3, 5, 19, 6, 48, 21, 7, 29, 4, 40, 0)
s = 85: (0, 7, 5, 18, 12, 28, 19, 7, 27, 5, 22, 0)
s = 86: (0, 4, 5, 12, 6, 50, 30, 7, 24, 3, 28, 0)
s = 87: (0, 6, 6, 25, 6, 53, 35, 9, 21, 3, 26, 0)
s = 88: (0, 5, 4, 11, 7, 60, 14, 6, 31, 3, 41, 0)
s = 89: (0, 4, 7, 25, 9, 38, 21, 6, 14, 6, 31, 0)
s = 90: (0, 3, 5, 18, 12, 36, 18, 7, 19, 5, 53, 0)
s = 91: (0, 4, 7, 15, 10, 61, 31, 6, 28, 4, 57, 0)
s = 92: (0, 3, 9, 18, 7, 41, 22, 5, 20, 4, 25, 0)
s = 93: (0, 4, 9, 17, 10, 64, 27, 6, 19, 5, 27, 0)
s = 94: (0, 6, 6, 30, 7, 46, 16, 5, 16, 4, 31, 0)
s = 95: (0, 6, 6, 14, 6, 58, 25, 4, 24, 5, 62, 0)
s = 96: (0, 5, 5, 10, 8, 28, 26, 6, 32, 5, 52, 0)
s = 97: (0, 3, 6, 21, 10, 25, 23, 6, 21, 4, 42, 0)
s = 98: (0, 6, 4, 25, 6, 60, 19, 4, 20, 6, 47, 0)
s = 99: (0, 4, 6, 10, 8, 69, 16, 5, 19, 5, 28, 0)
s = 100: (0, 6, 5, 15, 7, 29, 32, 6, 14, 5, 30, 0)
s = 101: (0, 5, 7, 17, 7, 63, 21, 5, 20, 5, 35, 0)
s = 102: (0, 5, 6, 12, 10, 37, 38, 4, 21, 4, 48, 0)
s = 103: (0, 4, 5, 17, 10, 30, 29, 5, 12, 5, 34, 0)
s = 104: (0, 6, 6, 17, 6, 36, 20, 6, 15, 5, 45, 0)
s = 105: (0, 4, 5, 14, 9, 60, 26, 8, 20, 4, 42, 0)
s = 106: (0, 4, 7, 14, 12, 64, 25, 8, 17, 3, 24, 0)
s = 107: (0, 6, 6, 16, 8, 38, 35, 7, 28, 5, 29, 0)
s = 108: (0, 4, 6, 16, 10, 50, 22, 4, 16, 4, 63, 0)
s = 109: (0, 4, 5, 16, 8, 58, 23, 8, 23, 4, 30, 0)
s = 110: (0, 4, 6, 26, 14, 33, 31, 6, 26, 3, 36, 0)
s = 111: (0, 5, 4, 9, 8, 53, 22, 7, 22, 5, 34, 0)
s = 112: (0, 4, 5, 13, 10, 85, 29, 4, 30, 6, 28, 0)
s = 113: (0, 4, 8, 15, 10, 43, 28, 9, 27, 5, 31, 0)
s = 114: (0, 6, 6, 10, 9, 51, 29, 5, 21, 3, 22, 0)
s = 115: (0, 5, 4, 17, 11, 44, 19, 9, 13, 3, 24, 0)
s = 116: (0, 5, 8, 19, 12, 56, 24, 6, 13, 4, 38, 0)
s = 117: (0, 5, 5, 15, 11, 54, 28, 6, 15, 5, 30, 0)
s = 118: (0, 3, 4, 12, 7, 64, 33, 4, 33, 4, 44, 0)
s = 119: (0, 5, 10, 18, 9, 54, 38, 9, 14, 4, 41, 0)
s = 120: (0, 3, 6, 21, 8, 70, 37, 6, 13, 4, 42, 0)
s = 121: (0, 3, 9, 18, 12, 61, 26, 5, 28, 4, 42, 0)
s = 122: (0, 6, 7, 23, 6, 38, 23, 7, 28, 5, 25, 0)
s = 123: (0, 5, 8, 14, 10, 31, 39, 8, 20, 6, 66, 0)
s = 124: (0, 4, 8, 10, 10, 59, 25, 8, 14, 6, 40, 0)
s = 125: (0, 5, 6, 10, 9, 34, 20, 5, 21, 5, 35, 0)
s = 126: (0, 4, 5, 18, 6, 30, 35, 6, 19, 4, 34, 0)
s = 127: (0, 4, 5, 14, 9, 58, 16, 7, 19, 3, 31, 0)
s = 128: (0, 5, 7, 12, 8, 32, 19, 6, 24, 6, 31, 0)
s = 129: (0, 6, 7, 20, 12, 52, 30, 6, 14, 4, 52, 0)
s = 130: (0, 5, 7, 16, 8, 75, 19, 8, 13, 4, 28, 0)
s = 131: (0, 4, 6, 17, 9, 52, 27, 6, 35, 5, 39, 0)
s = 132: (0, 3, 4, 21, 10, 45, 19, 5, 26, 4, 37, 0)
s = 133: (0, 6, 5, 22, 12, 56, 30, 8, 19, 5, 26, 0)
s = 134: (0, 6, 10, 19, 6, 43, 24, 8, 18, 3, 58, 0)
s = 135: (0, 3, 5, 16, 7, 63, 21, 8, 26, 8, 40, 0)
s = 136: (0, 4, 10, 22, 10, 40, 19, 9, 12, 6, 44, 0)
s = 137: (0, 5, 4, 13, 9, 44, 27, 10, 14, 4, 35, 0)
s = 138: (0, 4, 9, 26, 5, 46, 37, 8, 25, 4, 48, 0)
s = 139: (0, 6, 5, 16, 9, 56, 24, 5, 34, 5, 35, 0)
s = 140: (0, 4, 7, 17, 10, 59, 39, 5, 14, 7, 31, 0)
s = 141: (0, 7, 6, 9, 6, 39, 17, 5, 19, 3, 41, 0)
s = 142: (0, 4, 7, 14, 7, 51, 30, 4, 28, 5, 39, 0)
s = 143: (0, 6, 6, 15, 9, 48, 34, 8, 31, 5, 35, 0)
s = 144: (0, 4, 5, 12, 7, 61, 17, 10, 16, 5, 37, 0)
s = 145: (0, 4, 7, 10, 8, 49, 22, 6, 29, 4, 30, 0)
s = 146: (0, 6, 7, 26, 6, 42, 15, 7, 22, 3, 38, 0)
s = 147: (0, 5, 6, 12, 11, 33, 38, 8, 12, 4, 40, 0)
s = 148: (0, 4, 7, 26, 6, 27, 20, 9, 14, 4, 24, 0)
s = 149: (0, 5, 5, 22, 7, 33, 13, 5, 13, 5, 50, 0)
s = 150: (0, 6, 9, 22, 5, 50, 27, 7, 32, 4, 38, 0)
s = 151: (0, 5, 7, 19, 6, 72, 26, 5, 14, 4, 40, 0)
s = 152: (0, 4, 4, 16, 15, 65, 32, 9, 23, 4, 28, 0)
s = 153: (0, 5, 7, 10, 13, 43, 16, 5, 30, 3, 32, 0)
s = 154: (0, 7, 7, 18, 6, 58, 39, 4, 28, 4, 30, 0)
s = 155: (0, 5, 6, 23, 10, 36, 18, 8, 21, 7, 69, 0)
s = 156: (0, 3, 5, 12, 10, 54, 16, 7, 16, 4, 38, 0)
s = 157: (0, 5, 8, 9, 9, 48, 20, 7, 13, 4, 22, 0)
s = 158: (0, 3, 6, 18, 9, 51, 22, 8, 22, 4, 27, 0)
s = 159: (0, 3, 5, 9, 7, 60, 24, 5, 15, 3, 52, 0)
s = 160: (0, 5, 4, 11, 7, 37, 23, 5, 20, 4, 30, 0)
s = 161: (0, 3, 6, 11, 5, 40, 15, 5, 40, 6, 64, 0)
s = 162: (0, 6, 8, 12, 11, 57, 15, 5, 13, 4, 26, 0)
s = 163: (0, 5, 6, 17, 8, 31, 19, 5, 17, 3, 33, 0)
s = 164: (0, 3, 9, 13, 9, 61, 27, 5, 15, 3, 25, 0)
s = 165: (0, 6, 5, 16, 7, 62, 20, 9, 18, 4, 34, 0)
s = 166: (0, 5, 6, 22, 7, 62, 22, 5, 28, 6, 34, 0)
s = 167: (0, 4, 6, 17, 7, 45, 29, 6, 18, 4, 25, 0)
s = 168: (0, 6, 5, 12, 8, 42, 19, 5, 21, 6, 23, 0)
s = 169: (0, 4, 7, 19, 6, 47, 30, 5, 20, 3, 40, 0)
s = 170: (0, 5, 9, 18, 9, 87, 31, 7, 37, 4, 38, 0)
s = 171: (0, 3, 9, 14, 12, 59, 22, 5, 26, 3, 42, 0)
s = 172: (0, 5, 6, 10, 7, 73, 36, 8, 15, 5, 56, 0)
s = 173: (0, 5, 10, 15, 8, 46, 22, 5, 20, 5, 29, 0)
s = 174: (0, 5, 8, 15, 9, 31, 17, 6, 24, 4, 33, 0)
s = 175: (0, 4, 4, 11, 6, 50, 19, 5, 31, 3, 58, 0)
s = 176: (0, 4, 5, 12, 9, 64, 27, 7, 22, 5, 37, 0)
s = 177: (0, 3, 9, 25, 7, 72, 28, 6, 16, 3, 44, 0)
s = 178: (0, 3, 7, 16, 13, 51, 36, 8, 28, 3, 45, 0)
s = 179: (0, 3, 8, 17, 9, 45, 32, 8, 18, 5, 36, 0)
s = 180: (0, 6, 8, 14, 8, 53, 19, 6, 21, 6, 48, 0)
s = 181: (0, 5, 7, 12, 7, 35, 38, 5, 23, 6, 46, 0)
s = 182: (0, 6, 5, 20, 12, 81, 23, 5, 30, 4, 47, 0)
s = 183: (0, 5, 7, 10, 13, 55, 31, 8, 26, 4, 65, 0)
s = 184: (0, 5, 4, 12, 9, 72, 23, 4, 14, 4, 30, 0)
s = 185: (0, 3, 6, 17, 7, 27, 21, 7, 17, 4, 33, 0)
s = 186: (0, 4, 5, 27, 11, 37, 14, 8, 27, 3, 40, 0)
s = 187: (0, 5, 4, 20, 7, 40, 21, 5, 32, 6, 26, 0)
s = 188: (0, 7, 7, 21, 12, 43, 37, 8, 39, 5, 50, 0)
s = 189: (0, 4, 5, 14, 11, 75, 28, 7, 23, 5, 25, 0)
s = 190: (0, 4, 5, 10, 10, 37, 25, 7, 15, 6, 35, 0)
s = 191: (0, 4, 6, 14, 9, 38, 20, 6, 15, 5, 28, 0)
s = 192: (0, 7, 7, 16, 10, 71, 24, 6, 26, 5, 35, 0)
s = 193: (0, 6, 6, 14, 8, 70, 18, 5, 24, 5, 34, 0)
s = 194: (0, 5, 7, 18, 13, 51, 18, 6, 17, 5, 44, 0)
s = 195: (0, 4, 4, 13, 6, 45, 40, 5, 19, 4, 60, 0)
s = 196: (0, 5, 6, 12, 8, 28, 22, 6, 25, 4, 54, 0)
s = 197: (0, 6, 5, 12, 15, 57, 20, 6, 15, 6, 53, 0)
s = 198: (0, 4, 9, 15, 10, 37, 19, 10, 29, 5, 47, 0)
s = 199: (0, 5, 4, 17, 6, 38, 19, 6, 29, 5, 30, 0)
s = 200: (0, 5, 9, 11, 8, 44, 23, 9, 17, 4, 71, 0)
------------------------------------------------------------------------
RESOURCE k = 3
s = 1: (0, 16, 10, 22, 13, 26, 15, 5, 10, 8, 25, 0)
s = 2: (0, 20, 7, 19, 9, 21, 22, 8, 12, 7, 20, 0)
s = 3: (0, 24, 5, 24, 12, 17, 19, 5, 16, 11, 19, 0)
s = 4: (0, 13, 10, 17, 10, 19, 19, 7, 20, 11, 20, 0)
s = 5: (0, 19, 7, 13, 7, 20, 21, 5, 17, 8, 40, 0)
s = 6: (0, 20, 7, 18, 10, 21, 26, 4, 15, 6, 31, 0)
s = 7: (0, 19, 7, 39, 6, 17, 19, 5, 18, 6, 18, 0)
s = 8: (0, 15, 5, 18, 18, 20, 18, 4, 20, 12, 47, 0)
s = 9: (0, 13, 6, 27, 13, 18, 11, 4, 19, 15, 46, 0)
s = 10: (0, 16, 9, 28, 7, 20, 17, 6, 9, 6, 37, 0)
s = 11: (0, 15, 7, 24, 13, 25, 25, 5, 17, 7, 25, 0)
s = 12: (0, 12, 7, 18, 9, 15, 11, 5, 12, 5, 33, 0)
s = 13: (0, 14, 7, 13, 7, 20, 24, 3, 20, 12, 47, 0)
s = 14: (0, 19, 7, 25, 8, 23, 22, 4, 16, 6, 22, 0)
s = 15: (0, 23, 6, 30, 11, 22, 21, 6, 13, 9, 30, 0)
s = 16: (0, 22, 7, 38, 7, 16, 22, 3, 14, 7, 35, 0)
s = 17: (0, 28, 8, 27, 12, 16, 34, 3, 21, 8, 44, 0)
s = 18: (0, 12, 6, 17, 18, 15, 25, 4, 14, 8, 40, 0)
s = 19: (0, 19, 6, 31, 11, 18, 23, 5, 13, 13, 43, 0)
s = 20: (0, 20, 5, 27, 14, 23, 16, 6, 14, 6, 40, 0)
s = 21: (0, 29, 5, 18, 9, 25, 15, 4, 13, 7, 40, 0)
s = 22: (0, 20, 6, 15, 10, 23, 22, 7, 12, 10, 32, 0)
s = 23: (0, 18, 9, 27, 8, 25, 12, 3, 13, 6, 27, 0)
s = 24: (0, 10, 5, 25, 10, 28, 18, 6, 9, 7, 28, 0)
s = 25: (0, 12, 6, 28, 15, 15, 17, 6, 26, 6, 40, 0)
s = 26: (0, 12, 4, 16, 13, 26, 21, 6, 13, 7, 30, 0)
s = 27: (0, 16, 5, 16, 7, 15, 12, 4, 10, 9, 22, 0)
s = 28: (0, 20, 9, 16, 9, 28, 19, 5, 19, 6, 34, 0)
s = 29: (0, 14, 7, 19, 9, 21, 15, 4, 18, 11, 30, 0)
s = 30: (0, 13, 6, 17, 12, 16, 12, 6, 10, 10, 20, 0)
s = 31: (0, 22, 5, 18, 13, 17, 23, 4, 11, 7, 18, 0)
s = 32: (0, 13, 7, 23, 9, 16, 21, 4, 18, 6, 23, 0)
s = 33: (0, 20, 7, 21, 12, 17, 24, 4, 13, 9, 23, 0)
s = 34: (0, 21, 5, 32, 9, 21, 20, 8, 18, 10, 43, 0)
s = 35: (0, 13, 8, 25, 11, 20, 16, 7, 33, 6, 39, 0)
s = 36: (0, 15, 6, 13, 8, 14, 22, 7, 17, 7, 44, 0)
s = 37: (0, 10, 4, 34, 10, 25, 22, 5, 23, 13, 41, 0)
s = 38: (0, 22, 5, 24, 7, 24, 22, 4, 10, 10, 25, 0)
s = 39: (0, 15, 5, 27, 9, 19, 19, 6, 18, 7, 34, 0)
s = 40: (0, 17, 5, 17, 10, 37, 15, 5, 11, 7, 19, 0)
s = 41: (0, 11, 6, 17, 12, 23, 19, 7, 18, 10, 32, 0)
s = 42: (0, 20, 7, 19, 7, 29, 23, 7, 9, 9, 43, 0)
s = 43: (0, 20, 7, 14, 8, 14, 13, 6, 12, 7, 20, 0)
s = 44: (0, 16, 4, 33, 11, 17, 15, 6, 12, 5, 44, 0)
s = 45: (0, 11, 9, 18, 10, 22, 17, 4, 13, 8, 29, 0)
s = 46: (0, 19, 7, 23, 7, 24, 17, 4, 14, 10, 43, 0)
s = 47: (0, 20, 6, 18, 9, 19, 15, 5, 10, 8, 27, 0)
s = 48: (0, 22, 5, 30, 14, 17, 20, 5, 18, 6, 32, 0)
s = 49: (0, 17, 6, 22, 7, 18, 18, 4, 13, 8, 51, 0)
s = 50: (0, 12, 8, 30, 8, 14, 22, 6, 14, 9, 21, 0)
s = 51: (0, 12, 4, 27, 13, 17, 23, 6, 22, 9, 47, 0)
s = 52: (0, 18, 5, 17, 7, 17, 14, 9, 16, 6, 32, 0)
s = 53: (0, 16, 7, 18, 9, 14, 17, 5, 14, 7, 20, 0)
s = 54: (0, 16, 10, 25, 7, 13, 12, 4, 12, 11, 20, 0)
s = 55: (0, 13, 4, 21, 11, 29, 15, 5, 18, 9, 29, 0)
s = 56: (0, 21, 7, 30, 9, 20, 13, 7, 15, 5, 36, 0)
s = 57: (0, 13, 7, 28, 13, 21, 19, 3, 15, 10, 29, 0)
s = 58: (0, 19, 9, 21, 7, 18, 22, 6, 18, 9, 34, 0)
s = 59: (0, 12, 10, 26, 9, 18, 15, 5, 19, 7, 20, 0)
s = 60: (0, 13, 10, 41, 8, 16, 14, 5, 14, 13, 36, 0)
s = 61: (0, 19, 5, 20, 10, 22, 23, 7, 12, 7, 45, 0)
s = 62: (0, 21, 6, 31, 13, 23, 14, 7, 16, 5, 48, 0)
s = 63: (0, 12, 9, 21, 10, 23, 17, 5, 12, 5, 21, 0)
s = 64: (0, 26, 6, 39, 9, 32, 24, 4, 14, 8, 30, 0)
s = 65: (0, 17, 5, 26, 8, 19, 22, 6, 15, 6, 27, 0)
s = 66: (0, 15, 4, 18, 7, 15, 16, 6, 11, 7, 35, 0)
s = 67: (0, 11, 5, 21, 9, 16, 17, 5, 8, 13, 31, 0)
s = 68: (0, 12, 5, 19, 10, 34, 27, 8, 13, 12, 22, 0)
s = 69: (0, 25, 6, 17, 9, 22, 20, 7, 17, 5, 42, 0)
s = 70: (0, 27, 10, 27, 11, 25, 18, 4, 17, 5, 18, 0)
s = 71: (0, 13, 10, 18, 12, 15, 17, 6, 12, 6, 46, 0)
s = 72: (0, 9, 9, 16, 13, 17, 16, 7, 15, 11, 55, 0)
s = 73: (0, 11, 6, 25, 8, 30, 15, 7, 12, 10, 23, 0)
s = 74: (0, 14, 5, 30, 8, 25, 23, 5, 10, 9, 54, 0)
s = 75: (0, 25, 6, 19, 8, 30, 16, 6, 20, 10, 24, 0)
s = 76: (0, 11, 5, 14, 9, 26, 29, 4, 19, 8, 55, 0)
s = 77: (0, 11, 4, 17, 8, 13, 19, 5, 12, 7, 32, 0)
s = 78: (0, 16, 5, 26, 11, 17, 28, 9, 17, 9, 44, 0)
s = 79: (0, 20, 7, 28, 11, 20, 10, 6, 14, 11, 22, 0)
s = 80: (0, 16, 4, 14, 12, 25, 19, 8, 12, 6, 28, 0)
s = 81: (0, 15, 5, 18, 8, 21, 18, 6, 15, 8, 30, 0)
s = 82: (0, 16, 5, 18, 11, 18, 22, 5, 17, 8, 44, 0)
s = 83: (0, 15, 7, 16, 15, 16, 20, 4, 21, 10, 31, 0)
s = 84: (0, 10, 5, 26, 8, 21, 16, 6, 21, 8, 32, 0)
s = 85: (0, 26, 5, 25, 14, 12, 15, 6, 19, 9, 17, 0)
s = 86: (0, 15, 5, 16, 8, 22, 23, 6, 17, 6, 23, 0)
s = 87: (0, 22, 6, 35, 8, 23, 26, 8, 15, 6, 21, 0)
s = 88: (0, 19, 4, 16, 9, 26, 11, 5, 22, 5, 33, 0)
s = 89: (0, 13, 7, 34, 11, 17, 16, 5, 10, 11, 25, 0)
s = 90: (0, 11, 5, 26, 15, 16, 14, 6, 14, 9, 43, 0)
s = 91: (0, 16, 7, 21, 13, 26, 23, 5, 20, 8, 46, 0)
s = 92: (0, 11, 9, 25, 8, 18, 16, 4, 14, 7, 20, 0)
s = 93: (0, 14, 9, 24, 12, 28, 20, 5, 13, 9, 21, 0)
s = 94: (0, 21, 6, 42, 9, 20, 12, 5, 12, 7, 25, 0)
s = 95: (0, 21, 6, 20, 8, 25, 19, 3, 17, 10, 50, 0)
s = 96: (0, 19, 5, 13, 10, 12, 19, 5, 23, 9, 42, 0)
s = 97: (0, 11, 6, 30, 12, 11, 18, 5, 15, 7, 33, 0)
s = 98: (0, 24, 4, 35, 7, 26, 14, 4, 14, 11, 38, 0)
s = 99: (0, 15, 6, 14, 10, 30, 12, 4, 14, 10, 23, 0)
s = 100: (0, 22, 5, 21, 8, 13, 24, 5, 10, 9, 24, 0)
s = 101: (0, 17, 7, 23, 9, 27, 16, 5, 15, 9, 28, 0)
s = 102: (0, 20, 6, 17, 12, 16, 28, 3, 15, 7, 39, 0)
s = 103: (0, 16, 5, 23, 12, 13, 22, 4, 9, 9, 27, 0)
s = 104: (0, 22, 6, 24, 8, 16, 15, 5, 11, 9, 36, 0)
s = 105: (0, 16, 5, 19, 11, 26, 19, 7, 14, 8, 34, 0)
s = 106: (0, 16, 7, 19, 15, 28, 19, 7, 13, 6, 19, 0)
s = 107: (0, 22, 6, 23, 10, 16, 26, 6, 20, 9, 23, 0)
s = 108: (0, 13, 6, 22, 13, 22, 16, 3, 12, 7, 50, 0)
s = 109: (0, 14, 5, 22, 10, 25, 17, 6, 16, 7, 24, 0)
s = 110: (0, 14, 6, 36, 17, 15, 23, 5, 19, 6, 29, 0)
s = 111: (0, 19, 4, 12, 10, 23, 16, 6, 16, 9, 27, 0)
s = 112: (0, 14, 5, 18, 13, 37, 22, 3, 21, 11, 22, 0)
s = 113: (0, 13, 8, 21, 12, 19, 21, 7, 20, 9, 25, 0)
s = 114: (0, 24, 6, 14, 11, 22, 22, 4, 15, 6, 18, 0)
s = 115: (0, 18, 4, 24, 13, 19, 14, 7, 10, 5, 19, 0)
s = 116: (0, 19, 8, 26, 15, 24, 18, 5, 9, 7, 30, 0)
s = 117: (0, 18, 5, 21, 14, 23, 21, 5, 11, 10, 24, 0)
s = 118: (0, 12, 4, 16, 9, 28, 25, 3, 23, 7, 35, 0)
s = 119: (0, 17, 10, 26, 11, 23, 28, 7, 10, 7, 33, 0)
s = 120: (0, 12, 6, 29, 10, 30, 28, 5, 10, 8, 34, 0)
s = 121: (0, 11, 9, 25, 14, 27, 19, 4, 20, 7, 34, 0)
s = 122: (0, 23, 7, 31, 7, 16, 17, 6, 20, 10, 20, 0)
s = 123: (0, 18, 8, 19, 13, 14, 29, 7, 14, 12, 53, 0)
s = 124: (0, 16, 8, 13, 12, 26, 19, 7, 10, 12, 32, 0)
s = 125: (0, 18, 6, 13, 11, 15, 15, 4, 15, 9, 28, 0)
s = 126: (0, 13, 5, 26, 7, 13, 27, 5, 13, 7, 27, 0)
s = 127: (0, 16, 5, 20, 11, 25, 12, 6, 14, 6, 25, 0)
s = 128: (0, 19, 7, 16, 9, 14, 15, 5, 17, 11, 25, 0)
s = 129: (0, 24, 7, 28, 15, 23, 22, 5, 10, 8, 41, 0)
s = 130: (0, 18, 7, 22, 10, 33, 14, 7, 9, 7, 23, 0)
s = 131: (0, 15, 6, 24, 11, 23, 20, 5, 25, 10, 31, 0)
s = 132: (0, 10, 4, 29, 12, 20, 14, 4, 18, 8, 30, 0)
s = 133: (0, 22, 5, 31, 15, 24, 22, 6, 13, 10, 21, 0)
s = 134: (0, 22, 10, 27, 8, 19, 18, 7, 13, 5, 46, 0)
s = 135: (0, 11, 5, 22, 9, 27, 16, 6, 19, 15, 32, 0)
s = 136: (0, 14, 10, 31, 12, 18, 15, 8, 9, 11, 35, 0)
s = 137: (0, 19, 4, 19, 11, 19, 20, 8, 10, 7, 28, 0)
s = 138: (0, 15, 9, 36, 6, 20, 28, 7, 18, 7, 39, 0)
s = 139: (0, 21, 5, 22, 11, 24, 18, 4, 24, 10, 28, 0)
s = 140: (0, 14, 7, 23, 12, 26, 29, 5, 10, 14, 25, 0)
s = 141: (0, 26, 6, 13, 8, 17, 13, 4, 14, 5, 33, 0)
s = 142: (0, 13, 7, 20, 9, 22, 22, 4, 20, 9, 31, 0)
s = 143: (0, 21, 6, 21, 12, 21, 26, 7, 22, 10, 28, 0)
s = 144: (0, 14, 5, 16, 9, 27, 13, 9, 11, 10, 29, 0)
s = 145: (0, 13, 7, 14, 10, 21, 17, 5, 21, 7, 24, 0)
s = 146: (0, 23, 7, 36, 8, 18, 11, 6, 16, 6, 31, 0)
s = 147: (0, 18, 6, 17, 14, 14, 28, 6, 9, 8, 32, 0)
s = 148: (0, 16, 7, 36, 8, 12, 15, 7, 10, 8, 19, 0)
s = 149: (0, 18, 5, 31, 9, 15, 10, 4, 9, 10, 40, 0)
s = 150: (0, 22, 9, 30, 7, 22, 20, 6, 23, 7, 30, 0)
s = 151: (0, 19, 7, 26, 8, 31, 20, 4, 10, 7, 32, 0)
s = 152: (0, 13, 4, 22, 19, 28, 24, 7, 17, 7, 22, 0)
s = 153: (0, 19, 7, 14, 16, 19, 12, 4, 21, 5, 26, 0)
s = 154: (0, 28, 7, 25, 7, 25, 29, 4, 20, 7, 24, 0)
s = 155: (0, 17, 6, 31, 12, 16, 13, 7, 15, 14, 56, 0)
s = 156: (0, 10, 5, 16, 13, 24, 12, 6, 11, 7, 30, 0)
s = 157: (0, 17, 8, 12, 11, 21, 15, 6, 10, 7, 18, 0)
s = 158: (0, 12, 6, 25, 11, 22, 17, 6, 16, 8, 22, 0)
s = 159: (0, 11, 5, 13, 8, 26, 18, 4, 11, 5, 42, 0)
s = 160: (0, 19, 4, 15, 9, 16, 17, 4, 15, 8, 24, 0)
s = 161: (0, 11, 6, 15, 7, 17, 11, 5, 29, 11, 52, 0)
s = 162: (0, 21, 8, 17, 14, 25, 12, 4, 10, 7, 21, 0)
s = 163: (0, 19, 6, 23, 10, 14, 14, 5, 12, 5, 26, 0)
s = 164: (0, 11, 9, 18, 11, 26, 21, 4, 11, 5, 20, 0)
s = 165: (0, 23, 5, 22, 9, 27, 15, 8, 13, 8, 27, 0)
s = 166: (0, 20, 6, 31, 9, 27, 16, 4, 20, 12, 27, 0)
s = 167: (0, 13, 6, 23, 9, 20, 22, 5, 13, 8, 20, 0)
s = 168: (0, 21, 5, 17, 10, 18, 14, 4, 15, 11, 19, 0)
s = 169: (0, 15, 7, 27, 7, 20, 23, 4, 15, 6, 32, 0)
s = 170: (0, 17, 9, 25, 11, 38, 23, 6, 27, 7, 30, 0)
s = 171: (0, 12, 9, 20, 15, 25, 17, 5, 19, 6, 34, 0)
s = 172: (0, 18, 6, 13, 9, 32, 27, 7, 11, 9, 45, 0)
s = 173: (0, 19, 10, 20, 10, 20, 16, 4, 15, 10, 23, 0)
s = 174: (0, 19, 8, 21, 11, 13, 13, 5, 17, 8, 27, 0)
s = 175: (0, 14, 4, 16, 8, 22, 14, 4, 22, 5, 46, 0)
s = 176: (0, 16, 5, 16, 11, 28, 20, 6, 16, 9, 29, 0)
s = 177: (0, 12, 9, 35, 9, 31, 21, 5, 11, 6, 36, 0)
s = 178: (0, 11, 7, 22, 16, 22, 27, 6, 20, 5, 36, 0)
s = 179: (0, 11, 8, 24, 11, 20, 24, 7, 13, 10, 29, 0)
s = 180: (0, 21, 8, 20, 10, 23, 15, 5, 15, 11, 39, 0)
s = 181: (0, 20, 7, 17, 9, 15, 29, 4, 16, 11, 37, 0)
s = 182: (0, 24, 5, 28, 15, 35, 18, 4, 21, 8, 38, 0)
s = 183: (0, 18, 7, 14, 16, 24, 24, 7, 19, 8, 52, 0)
s = 184: (0, 20, 4, 17, 11, 31, 18, 4, 10, 7, 24, 0)
s = 185: (0, 12, 6, 24, 9, 12, 16, 6, 13, 7, 27, 0)
s = 186: (0, 13, 5, 38, 14, 16, 11, 7, 20, 6, 32, 0)
s = 187: (0, 19, 4, 28, 9, 18, 16, 4, 23, 11, 21, 0)
s = 188: (0, 25, 7, 29, 15, 19, 28, 6, 28, 9, 40, 0)
s = 189: (0, 16, 5, 19, 14, 32, 21, 6, 17, 10, 20, 0)
s = 190: (0, 16, 5, 14, 12, 16, 19, 6, 11, 11, 28, 0)
s = 191: (0, 14, 6, 20, 11, 17, 15, 5, 11, 9, 23, 0)
s = 192: (0, 26, 7, 22, 12, 31, 18, 5, 18, 10, 28, 0)
s = 193: (0, 24, 6, 20, 10, 30, 14, 4, 17, 9, 27, 0)
s = 194: (0, 20, 7, 25, 17, 22, 14, 5, 12, 10, 35, 0)
s = 195: (0, 15, 4, 18, 7, 20, 30, 4, 13, 7, 48, 0)
s = 196: (0, 18, 6, 17, 10, 12, 16, 5, 18, 8, 43, 0)
s = 197: (0, 21, 5, 17, 19, 25, 15, 5, 11, 11, 43, 0)
s = 198: (0, 15, 9, 20, 13, 16, 14, 8, 21, 10, 37, 0)
s = 199: (0, 17, 4, 24, 7, 17, 14, 5, 21, 9, 24, 0)
s = 200: (0, 18, 9, 15, 9, 19, 17, 8, 12, 8, 57, 0)
************************************************************************
ES/LS-VALUES:
jobnr.   ES(i)    LS(i)
------------------------------------------------------------------------
  0        0        0
  1        0       49
  2        0       51
  3        0       47
  4        6       65
  5        6       53
  6        4       60
  7       18       66
  8       19       69
  9        9       74
 10       19       68
 11       26       76
************************************************************************
BIG-M-VALUES:
M1 = 64, M2 = 237
************************************************************************
